22	3

10	10	10	

0	0	0	0	3	2	3	4	
4	3	5	2	2	6	8	
1	5	4	3	2	5	8	
4	5	2	2	2	6	7	
3	4	1	4	2	9	10	
2	5	5	4	2	9	10	
5	3	5	2	2	9	10	
7	2	4	4	3	9	11	12	
3	3	2	2	2	13	16	
7	3	2	4	1	13	
1	3	3	2	2	14	15	
5	4	1	4	1	13	
3	1	4	4	1	17	
4	2	2	2	1	18	
6	5	5	4	2	17	19	
6	1	5	4	1	17	
3	4	5	4	1	20	
2	3	2	3	1	20	
4	5	3	3	1	21	
8	2	4	6	1	22	
1	1	6	2	1	22	
0	0	0	0	0	
